100 2533

31 31
17 17
40 40
40 40
94 94
20 20
2 2
89 89
14 14
44 44
81 81
51 51
49 49
99 99
87 87
27 27
93 93
2 2
68 68
88 88
23 23
4 4
38 38
97 97
87 87
31 31
48 48
46 46
36 36
41 41
38 38
78 78
14 14
94 94
93 93
48 48
46 46
41 41
68 68
49 49
47 47
66 66
78 78
47 47
62 62
48 48
85 85
90 90
59 59
17 17
23 23
69 69
81 81
62 62
40 40
8 8
75 75
4 4
16 16
71 71
82 82
21 21
40 40
72 72
4 4
65 65
65 65
57 57
12 12
61 61
15 15
48 48
3 3
71 71
29 29
96 96
42 42
71 71
16 16
66 66
43 43
59 59
89 89
43 43
5 5
73 73
51 51
83 83
24 24
21 21
43 43
21 21
19 19
47 47
98 98
45 45
54 54
76 76
90 90
43 43
